Problem:    
Rows:       226
Columns:    348 (348 integer, 348 binary)
Non-zeros:  2118
Status:     INTEGER OPTIMAL
Objective:  score = 125836.663 (MAXimum)

   No.   Row name        Activity     Lower bound   Upper bound
------ ------------    ------------- ------------- -------------
     1 index_0                     0             0               
     2 index_1                     0             0               
     3 index_2                     1             0               
     4 index_3                     0             0               
     5 index_4                     1             0               
     6 index_5                     0             0               
     7 index_6                     0             0               
     8 index_7                     0             0               
     9 index_8                     4             0               
    10 index_9                     0             0               
    11 index_10                    0             0               
    12 index_11                    0             0               
    13 index_12                    1             0               
    14 index_13                    0             0               
    15 index_14                    0             0               
    16 index_15                    1             0               
    17 index_16                    0             0               
    18 index_17                    0             0               
    19 index_18                    0             0               
    20 index_19                    0             0               
    21 index_20                    0             0               
    22 index_21                    0             0               
    23 index_22                    1             0               
    24 index_23                    1             0               
    25 index_24                    0             0               
    26 index_25                    0             0               
    27 index_26                    0             0               
    28 index_27                    0             0               
    29 index_28                    0             0               
    30 index_29                    2             0               
    31 index_30                    0             0               
    32 index_31                    0             0               
    33 index_32                    1             0               
    34 index_33                    0             0               
    35 index_34                    0             0               
    36 index_35                    0             0               
    37 index_36                    0             0               
    38 index_37                    0             0               
    39 index_38                    0             0               
    40 index_39                    0             0               
    41 index_40                    0             0               
    42 index_41                    0             0               
    43 index_42                    0             0               
    44 index_43                    3             0               
    45 index_44                    0             0               
    46 index_45                    0             0               
    47 index_46                    0             0               
    48 index_47                    3             0               
    49 index_48                    0             0               
    50 index_49                    0             0               
    51 index_50                    0             0               
    52 index_51                    1             0               
    53 index_52                    0             0               
    54 index_53                    1             0               
    55 index_54                    0             0               
    56 index_55                    0             0               
    57 index_56                    0             0               
    58 index_57                    0             0               
    59 index_58                    0             0               
    60 index_59                    0             0               
    61 index_60                    0             0               
    62 index_61                    0             0               
    63 index_62                    0             0               
    64 index_63                    1             0               
    65 index_64                    0             0               
    66 index_65                    0             0               
    67 index_66                    0             0               
    68 index_67                    0             0               
    69 index_68                    0             0               
    70 index_69                    0             0               
    71 index_70                    0             0               
    72 index_71                    0             0               
    73 index_72                    0             0               
    74 index_73                    0             0               
    75 index_74                    0             0               
    76 index_75                    0             0               
    77 index_76                    1             0               
    78 index_77                    0             0               
    79 index_78                    0             0               
    80 index_79                    0             0               
    81 index_80                    0             0               
    82 index_81                    1             0               
    83 index_82                    0             0               
    84 index_83                    1             0               
    85 index_84                    1             0               
    86 index_85                    0             0               
    87 index_86                    0             0               
    88 index_87                    0             0               
    89 index_88                    0             0               
    90 index_89                    0             0               
    91 index_90                    0             0               
    92 index_91                    0             0               
    93 index_92                    0             0               
    94 index_93                    0             0               
    95 index_94                    0             0               
    96 index_95                    0             0               
    97 index_96                    0             0               
    98 index_97                    2             0               
    99 index_98                    1             0               
   100 index_99                    1             0               
   101 index_100                   1             0               
   102 index_101                   2             0               
   103 index_102                   0             0               
   104 index_103                   0             0               
   105 index_104                   0             0               
   106 index_105                   1             0               
   107 index_106                   1             0               
   108 index_107                   1             0               
   109 index_108                   0             0               
   110 index_109                   0             0               
   111 index_110                   0             0               
   112 index_111                   1             0               
   113 index_112                   1             0               
   114 index_113                   0             0               
   115 index_114                   0             0               
   116 index_115                   0             0               
   117 index_116                   0             0               
   118 index_117                   0             0               
   119 index_118                   0             0               
   120 index_119                   0             0               
   121 index_120                   0             0               
   122 index_121                   1             0               
   123 index_122                   0             0               
   124 index_123                   0             0               
   125 index_124                   1             0               
   126 index_125                   0             0               
   127 index_126                   0             0               
   128 index_127                   0             0               
   129 index_128                   0             0               
   130 index_129                   0             0               
   131 index_130                   0             0               
   132 index_131                   0             0               
   133 index_132                   0             0               
   134 index_133                   2             0               
   135 index_134                   0             0               
   136 index_135                   0             0               
   137 index_136                   0             0               
   138 index_137                   0             0               
   139 index_138                   0             0               
   140 index_139                   2             0               
   141 index_140                   0             0               
   142 index_141                   0             0               
   143 index_142                   0             0               
   144 index_143                   0             0               
   145 index_144                   0             0               
   146 index_145                   2             0               
   147 index_146                   0             0               
   148 index_147                   0             0               
   149 index_148                   0             0               
   150 index_149                   0             0               
   151 index_150                   0             0               
   152 index_151                   2             0               
   153 index_152                   0             0               
   154 index_153                   0             0               
   155 index_154                   0             0               
   156 index_155                   0             0               
   157 index_156                   1             0               
   158 index_157                   0             0               
   159 index_158                   0             0               
   160 index_159                   0             0               
   161 index_160                   0             0               
   162 index_161                   0             0               
   163 index_162                   1             0               
   164 index_163                   0             0               
   165 index_164                   0             0               
   166 index_165                   0             0               
   167 index_166                   0             0               
   168 index_167                   0             0               
   169 index_168                   2             0               
   170 index_169                   0             0               
   171 index_170                   0             0               
   172 index_171                   0             0               
   173 index_172                   0             0               
   174 index_173                   0             0               
   175 index_174                   0             0               
   176 index_175                   0             0               
   177 index_176                   0             0               
   178 index_177                   0             0               
   179 index_178                   0             0               
   180 index_179                   0             0               
   181 index_180                   0             0               
   182 index_181                   0             0               
   183 index_182                   0             0               
   184 index_183                   0             0               
   185 index_184                   0             0               
   186 index_185                   0             0               
   187 index_186                   0             0               
   188 index_187                   0             0               
   189 index_188                   0             0               
   190 index_189                   0             0               
   191 index_190                   0             0               
   192 index_191                   0             0               
   193 index_192                   1             0               
   194 index_193                   0             0               
   195 index_194                   0             0               
   196 index_195                   0             0               
   197 index_196                   0             0               
   198 index_197                   0             0               
   199 index_198                   0             0               
   200 index_199                   0             0               
   201 index_200                   0             0               
   202 index_201                   0             0               
   203 index_202                   0             0               
   204 index_203                   1             0               
   205 index_204                   0             0               
   206 index_205                   0             0               
   207 index_206                   0             0               
   208 index_207                   0             0               
   209 index_208                   1             0               
   210 index_209                   0             0               
   211 index_210                   0             0               
   212 index_211                   0             0               
   213 index_212                   1             0               
   214 index_213                   0             0               
   215 index_214                   0             0               
   216 index_215                   0             0               
   217 index_216                   0             0               
   218 index_217                   0             0               
   219 index_218                   0             0               
   220 index_219                   1             0               
   221 index_220                   0             0               
   222 index_221                   0             0               
   223 index_222                   0             0               
   224 index_223                   0             0               
   225 index_224                   0             0               
   226 length                      7                           7 

   No. Column name       Activity     Lower bound   Upper bound
------ ------------    ------------- ------------- -------------
     1 c0           *              1             0             1 
     2 c1           *              1             0             1 
     3 c2           *              1             0             1 
     4 c3           *              1             0             1 
     5 c4           *              1             0             1 
     6 c5           *              1             0             1 
     7 c6           *              1             0             1 
     8 c7           *              0             0             1 
     9 c8           *              1             0             1 
    10 c9           *              1             0             1 
    11 c10          *              1             0             1 
    12 c11          *              1             0             1 
    13 c12          *              1             0             1 
    14 c13          *              1             0             1 
    15 c14          *              1             0             1 
    16 c15          *              1             0             1 
    17 c16          *              1             0             1 
    18 c17          *              0             0             1 
    19 c18          *              1             0             1 
    20 c19          *              1             0             1 
    21 c20          *              1             0             1 
    22 c21          *              1             0             1 
    23 c22          *              1             0             1 
    24 c23          *              1             0             1 
    25 c24          *              1             0             1 
    26 c25          *              1             0             1 
    27 c26          *              1             0             1 
    28 c27          *              0             0             1 
    29 c28          *              0             0             1 
    30 c29          *              1             0             1 
    31 c30          *              1             0             1 
    32 c31          *              0             0             1 
    33 c32          *              1             0             1 
    34 c33          *              0             0             1 
    35 c34          *              0             0             1 
    36 c35          *              0             0             1 
    37 c36          *              1             0             1 
    38 c37          *              1             0             1 
    39 c38          *              0             0             1 
    40 c39          *              1             0             1 
    41 c40          *              1             0             1 
    42 c41          *              1             0             1 
    43 c42          *              1             0             1 
    44 c43          *              1             0             1 
    45 c44          *              1             0             1 
    46 c45          *              0             0             1 
    47 c46          *              0             0             1 
    48 c47          *              1             0             1 
    49 c48          *              1             0             1 
    50 c49          *              1             0             1 
    51 c50          *              1             0             1 
    52 c51          *              1             0             1 
    53 c52          *              0             0             1 
    54 c53          *              1             0             1 
    55 c54          *              1             0             1 
    56 c55          *              1             0             1 
    57 c56          *              1             0             1 
    58 c57          *              1             0             1 
    59 c58          *              1             0             1 
    60 c59          *              1             0             1 
    61 c60          *              1             0             1 
    62 c61          *              1             0             1 
    63 c62          *              1             0             1 
    64 c63          *              1             0             1 
    65 c64          *              1             0             1 
    66 c65          *              0             0             1 
    67 c66          *              1             0             1 
    68 c67          *              1             0             1 
    69 c68          *              0             0             1 
    70 c69          *              1             0             1 
    71 c70          *              0             0             1 
    72 c71          *              1             0             1 
    73 c72          *              0             0             1 
    74 c73          *              0             0             1 
    75 c74          *              0             0             1 
    76 c75          *              0             0             1 
    77 c76          *              1             0             1 
    78 c77          *              0             0             1 
    79 c78          *              1             0             1 
    80 c79          *              1             0             1 
    81 c80          *              1             0             1 
    82 c81          *              1             0             1 
    83 c82          *              1             0             1 
    84 c83          *              1             0             1 
    85 c84          *              1             0             1 
    86 c85          *              1             0             1 
    87 c86          *              0             0             1 
    88 c87          *              1             0             1 
    89 c88          *              0             0             1 
    90 c89          *              1             0             1 
    91 c90          *              0             0             1 
    92 c91          *              1             0             1 
    93 c92          *              0             0             1 
    94 c93          *              1             0             1 
    95 c94          *              1             0             1 
    96 c95          *              0             0             1 
    97 c96          *              1             0             1 
    98 c97          *              1             0             1 
    99 c98          *              1             0             1 
   100 c99          *              1             0             1 
   101 c100         *              1             0             1 
   102 c101         *              1             0             1 
   103 c102         *              0             0             1 
   104 c103         *              1             0             1 
   105 c104         *              1             0             1 
   106 c105         *              1             0             1 
   107 c106         *              1             0             1 
   108 c107         *              1             0             1 
   109 c108         *              0             0             1 
   110 c109         *              1             0             1 
   111 c110         *              0             0             1 
   112 c111         *              1             0             1 
   113 c112         *              1             0             1 
   114 c113         *              0             0             1 
   115 c114         *              1             0             1 
   116 c115         *              0             0             1 
   117 c116         *              0             0             1 
   118 c117         *              0             0             1 
   119 c118         *              1             0             1 
   120 c119         *              1             0             1 
   121 c120         *              0             0             1 
   122 c121         *              1             0             1 
   123 c122         *              0             0             1 
   124 c123         *              0             0             1 
   125 c124         *              1             0             1 
   126 c125         *              0             0             1 
   127 c126         *              0             0             1 
   128 c127         *              0             0             1 
   129 c128         *              1             0             1 
   130 c129         *              1             0             1 
   131 c130         *              0             0             1 
   132 c131         *              0             0             1 
   133 c132         *              0             0             1 
   134 c133         *              1             0             1 
   135 c134         *              0             0             1 
   136 c135         *              0             0             1 
   137 c136         *              0             0             1 
   138 c137         *              0             0             1 
   139 c138         *              0             0             1 
   140 c139         *              1             0             1 
   141 c140         *              1             0             1 
   142 c141         *              1             0             1 
   143 c142         *              1             0             1 
   144 c143         *              1             0             1 
   145 c144         *              0             0             1 
   146 c145         *              1             0             1 
   147 c146         *              0             0             1 
   148 c147         *              0             0             1 
   149 c148         *              0             0             1 
   150 c149         *              0             0             1 
   151 c150         *              1             0             1 
   152 c151         *              1             0             1 
   153 c152         *              0             0             1 
   154 c153         *              0             0             1 
   155 c154         *              0             0             1 
   156 c155         *              0             0             1 
   157 c156         *              1             0             1 
   158 c157         *              0             0             1 
   159 c158         *              0             0             1 
   160 c159         *              0             0             1 
   161 c160         *              0             0             1 
   162 c161         *              1             0             1 
   163 c162         *              1             0             1 
   164 c163         *              0             0             1 
   165 c164         *              1             0             1 
   166 c165         *              0             0             1 
   167 c166         *              0             0             1 
   168 c167         *              0             0             1 
   169 c168         *              1             0             1 
   170 c169         *              1             0             1 
   171 c170         *              0             0             1 
   172 c171         *              0             0             1 
   173 c172         *              0             0             1 
   174 c173         *              1             0             1 
   175 c174         *              0             0             1 
   176 c175         *              1             0             1 
   177 c176         *              0             0             1 
   178 c177         *              0             0             1 
   179 c178         *              0             0             1 
   180 c179         *              1             0             1 
   181 c180         *              0             0             1 
   182 c181         *              1             0             1 
   183 c182         *              0             0             1 
   184 c183         *              1             0             1 
   185 c184         *              1             0             1 
   186 c185         *              1             0             1 
   187 c186         *              0             0             1 
   188 c187         *              1             0             1 
   189 c188         *              1             0             1 
   190 c189         *              0             0             1 
   191 c190         *              0             0             1 
   192 c191         *              0             0             1 
   193 c192         *              1             0             1 
   194 c193         *              0             0             1 
   195 c194         *              1             0             1 
   196 c195         *              1             0             1 
   197 c196         *              0             0             1 
   198 c197         *              0             0             1 
   199 c198         *              1             0             1 
   200 c199         *              1             0             1 
   201 c200         *              0             0             1 
   202 c201         *              0             0             1 
   203 c202         *              1             0             1 
   204 c203         *              1             0             1 
   205 c204         *              0             0             1 
   206 c205         *              1             0             1 
   207 c206         *              1             0             1 
   208 c207         *              1             0             1 
   209 c208         *              1             0             1 
   210 c209         *              0             0             1 
   211 c210         *              1             0             1 
   212 c211         *              0             0             1 
   213 c212         *              1             0             1 
   214 c213         *              1             0             1 
   215 c214         *              1             0             1 
   216 c215         *              0             0             1 
   217 c216         *              1             0             1 
   218 c217         *              1             0             1 
   219 c218         *              0             0             1 
   220 c219         *              1             0             1 
   221 c220         *              0             0             1 
   222 c221         *              1             0             1 
   223 c222         *              0             0             1 
   224 c223         *              0             0             1 
   225 c224         *              0             0             1 
   226 c225         *              1             0             1 
   227 c226         *              1             0             1 
   228 c227         *              1             0             1 
   229 c228         *              1             0             1 
   230 c229         *              1             0             1 
   231 c230         *              1             0             1 
   232 c231         *              1             0             1 
   233 c232         *              1             0             1 
   234 c233         *              1             0             1 
   235 c234         *              1             0             1 
   236 c235         *              1             0             1 
   237 c236         *              1             0             1 
   238 c237         *              1             0             1 
   239 c238         *              1             0             1 
   240 s91          *              0             0             1 
   241 s93          *              0             0             1 
   242 s96          *              0             0             1 
   243 s100         *              0             0             1 
   244 s103         *              0             0             1 
   245 s104         *              0             0             1 
   246 s107         *              1             0             1 
   247 s20          *              0             0             1 
   248 s21          *              0             0             1 
   249 s23          *              0             0             1 
   250 s92          *              0             0             1 
   251 s94          *              0             0             1 
   252 s30          *              0             0             1 
   253 s42          *              0             0             1 
   254 s50          *              0             0             1 
   255 s63          *              1             0             1 
   256 s74          *              0             0             1 
   257 s81          *              0             0             1 
   258 s97          *              0             0             1 
   259 s99          *              0             0             1 
   260 s108         *              0             0             1 
   261 s34          *              0             0             1 
   262 s102         *              0             0             1 
   263 s35          *              0             0             1 
   264 s89          *              1             0             1 
   265 s90          *              0             0             1 
   266 s95          *              0             0             1 
   267 s98          *              0             0             1 
   268 s101         *              0             0             1 
   269 s25          *              0             0             1 
   270 s46          *              0             0             1 
   271 s49          *              0             0             1 
   272 s56          *              0             0             1 
   273 s78          *              0             0             1 
   274 s87          *              0             0             1 
   275 s0           *              0             0             1 
   276 s1           *              0             0             1 
   277 s3           *              0             0             1 
   278 s5           *              0             0             1 
   279 s6           *              0             0             1 
   280 s7           *              0             0             1 
   281 s9           *              0             0             1 
   282 s11          *              0             0             1 
   283 s12          *              0             0             1 
   284 s16          *              0             0             1 
   285 s17          *              0             0             1 
   286 s19          *              1             0             1 
   287 s22          *              1             0             1 
   288 s26          *              0             0             1 
   289 s29          *              0             0             1 
   290 s33          *              0             0             1 
   291 s38          *              0             0             1 
   292 s43          *              0             0             1 
   293 s45          *              0             0             1 
   294 s51          *              0             0             1 
   295 s52          *              0             0             1 
   296 s54          *              0             0             1 
   297 s57          *              0             0             1 
   298 s58          *              0             0             1 
   299 s59          *              0             0             1 
   300 s60          *              0             0             1 
   301 s62          *              0             0             1 
   302 s65          *              0             0             1 
   303 s66          *              0             0             1 
   304 s67          *              0             0             1 
   305 s70          *              0             0             1 
   306 s71          *              0             0             1 
   307 s75          *              0             0             1 
   308 s76          *              0             0             1 
   309 s80          *              1             0             1 
   310 s82          *              0             0             1 
   311 s83          *              0             0             1 
   312 s85          *              0             0             1 
   313 s53          *              0             0             1 
   314 s84          *              0             0             1 
   315 s28          *              0             0             1 
   316 s32          *              0             0             1 
   317 s48          *              0             0             1 
   318 s77          *              0             0             1 
   319 s27          *              0             0             1 
   320 s37          *              0             0             1 
   321 s36          *              0             0             1 
   322 s105         *              0             0             1 
   323 s47          *              0             0             1 
   324 s79          *              0             0             1 
   325 s106         *              0             0             1 
   326 s55          *              0             0             1 
   327 s86          *              0             0             1 
   328 s69          *              1             0             1 
   329 s10          *              0             0             1 
   330 s18          *              0             0             1 
   331 s72          *              0             0             1 
   332 s4           *              0             0             1 
   333 s39          *              0             0             1 
   334 s68          *              0             0             1 
   335 s61          *              0             0             1 
   336 s8           *              0             0             1 
   337 s40          *              0             0             1 
   338 s41          *              0             0             1 
   339 s44          *              0             0             1 
   340 s73          *              0             0             1 
   341 s88          *              0             0             1 
   342 s24          *              0             0             1 
   343 s64          *              0             0             1 
   344 s2           *              0             0             1 
   345 s14          *              0             0             1 
   346 s31          *              0             0             1 
   347 s15          *              0             0             1 
   348 s13          *              0             0             1 

Integer feasibility conditions:

KKT.PE: max.abs.err = 0.00e+00 on row 0
        max.rel.err = 0.00e+00 on row 0
        High quality

KKT.PB: max.abs.err = 0.00e+00 on row 0
        max.rel.err = 0.00e+00 on row 0
        High quality

End of output
